c --- [ banner ] -------------------------------------------------------------
c 
c CaDiCaL Radically Simplified CDCL SAT Solver
c Copyright (c) 2016-2021 A. Biere, M. Fleury, N. Froleyks
c 
c Version 1.5.2 a5f15211db36c3956764e18194dd5bd63bf3b5e6
c g++ (GCC) 9.3.0 -Wall -Wextra -O3 -DNDEBUG
c Fri Oct 21 01:27:37 EDT 2022 Linux gra-login3 3.10.0-1160.66.1.el7.x86_64 x86_64
c 
c --- [ limit ] --------------------------------------------------------------
c 
c setting conflict limit to 200000 conflicts (due to '200000')
c 
c --- [ parsing input ] ------------------------------------------------------
c 
c reading DIMACS file from '33.cubes6304.adj'
c opening file to read '33.cubes6304.adj'
c found 'p cnf 6160 1595481' header
c parsed 1595481 clauses in 20.21 seconds process time
c closing file '33.cubes6304.adj'
c after reading 1457566815 bytes 1390.0 MB
c 
c --- [ options ] ------------------------------------------------------------
c 
c all options are set to their default value
c 
c --- [ solving ] ------------------------------------------------------------
c 
c time measured in process time since initialization
c 
c  seconds    reductions  redundant   irredundant
c          MB     restarts       trail       variables
c            level   conflicts       glue         remaining
c 
c * 20.21 1382  0 0   0    0    0  0% 0 1595422 2327 38%
c { 21.80 1431  0 0   0    0    0  0% 0 1595422 2327 38%
c i 23.36 1459 1145 0   0   26   23 38% 3 1595422 2317 38%
c i 24.57 1475 783 0   4   39   34 34% 6 1595422 2296 37%
c i 25.33 1480 644 0   7   49   42 33% 11 1595422 2295 37%
c i 25.53 1480 574 0   8   58   47 32% 33 1595422 2294 37%
c i 26.73 1488 440 0  16   85   71 31% 42 1595422 2282 37%
c i 27.47 1490 381 0  19  102   87 30% 42 1595422 2281 37%
c i 27.90 1490 290 0  22  138  120 30% 37 1595422 2280 37%
c i 28.31 1490 212 0  22  193  157 29% 31 1595422 2279 37%
c i 28.43 1490 200 0  22  208  170 29% 30 1595422 2278 37%
c i 28.44 1490 199 0  22  209  170 29% 30 1595422 2277 37%
c i 28.45 1490 195 0  22  214  173 29% 30 1595422 2276 37%
c i 28.46 1490 194 0  22  215  173 29% 30 1595422 2272 37%
c i 28.79 1490 168 0  22  266  213 29% 30 1595422 2266 37%
c i 28.89 1490 162 0  22  281  226 29% 30 1595422 2265 37%
c i 28.94 1490 160 0  22  286  230 29% 30 1595422 2264 37%
c - 32.93 1417 156 1  22  300  240 29% 29 192245 2264 37%
c i 33.37 1373 151 1  22  317  256 29% 30 192245 2263 37%
c i 33.67 1373 122 1  22  419  331 29% 28 192245 2262 37%
c 
c  seconds     reductions  redundant   irredundant
c          MB      restarts       trail       variables
c             level   conflicts       glue         remaining
c 
c i 34.02 1373 107 1  23  543  428 29% 28 192245 2261 37%
c i 34.23 1373 98 1  26  643  517 29% 29 192245 2260 37%
c i 35.42 1373 97 1  54  762  622 29% 33 192245 2259 37%
c i 36.14 1373 98 1  66  812  659 29% 33 192245 2258 37%
c i 36.40 1373 98 1  70  837  681 29% 33 192245 2257 37%
c i 37.27 1373 90 1  72  959  779 29% 31 192245 2256 37%
c } 37.48 1373 89 1  72 1000  817 29% 31 192245 2256 37%
c [ 37.48 1373  0 1  72 1000  817  0% 0 192245 2256 37%
c O 37.50 1373 68 1  72 1002  819 21% 6 192245 2256 37%
c - 38.43 1454 34 2  72 1073  770 29% 22 192224 2256 37%
c i 38.79 1454 34 2  72 1526 1128 31% 28 192224 2255 37%
c i 38.89 1454 33 2  72 1633 1201 31% 27 192224 2254 37%
c - 39.54 1454 30 3  73 2228 1299 31% 26 192218 2254 37%
c ] 40.23 1454 30 3  73 3001 1786 51% 26 192218 2254 37%
c { 40.23 1454 89 3  73 3001 1786 79% 31 192218 2254 37%
c F 40.25 1454 89 3  73 3004 1789 79% 31 192218 2254 37%
c i 40.39 1454 88 3  73 3025 1807 79% 31 192218 2253 37%
c i 41.03 1454 69 3  77 3635 2263 67% 27 192218 2252 37%
c - 41.25 1454 65 4  77 3770 1597 66% 27 192213 2252 37%
c i 41.27 1454 65 4  77 3778 1600 66% 26 192213 2251 37%
c 
c  seconds    reductions  redundant   irredundant
c          MB     restarts       trail       variables
c            level   conflicts       glue         remaining
c 
c i 41.40 1454 65 4  77 3825 1645 66% 27 192213 2250 37%
c i 42.44 1454 64 4 113 4132 1897 63% 27 192213 2249 37%
c i 42.90 1454 63 4 128 4226 1973 62% 27 192213 2248 36%
c i 43.69 1454 60 4 142 4745 2349 59% 27 192213 2247 36%
c d 44.52 1454 61 4 172 5000 2551 57% 28 192191 2243 36%
c 2 44.59 1454 61 4 172 5000 3634 57% 28 192181 2243 36%
c p 47.12 1454 61 4 172 5000 6445 57% 28 192181 2213 36%
c d 47.39 1454 61 4 172 5000 6400 57% 28 192090 2212 36%
c - 49.79 1452 63 5 261 5695 2354 54% 29 192090 2212 36%
c # 49.92 1452 59 5 261 6005 2521 54% 27 192090 2212 36%
c } 50.95 1452 53 5 261 7001 3301 53% 27 192090 2212 36%
c [ 50.95 1452 30 5 261 7001 3301 51% 26 192090 2212 36%
c - 51.82 1376 30 6 262 8007 2809 50% 26 192090 2212 36%
c I 54.25 1376 30 6 263 10007 4167 50% 26 192090 2212 36%
c - 55.68 1376 33 7 264 10703 3279 50% 27 192090 2212 36%
c - 60.29 1376 33 8 266 13784 3556 50% 28 192090 2212 36%
c ] 61.62 1376 35 8 266 15004 4308 50% 30 192090 2212 36%
c { 61.62 1376 53 8 266 15004 4308 53% 27 192090 2212 36%
c p 63.54 1376 53 8 266 15004 8027 53% 27 192090 2212 36%
c B 63.74 1376 53 8 266 15008 8031 53% 27 192090 2212 36%
c 
c  seconds    reductions   redundant   irredundant
c          MB     restarts        trail       variables
c            level    conflicts       glue         remaining
c 
c - 65.94 1376 44 9 293 17250 4156 51% 24 192090 2212 36%
c s 67.05 1376 39 9 293 18843 5041 51% 22 190897 2212 36%
c v 69.92 1376 39 9 293 18843 5041 51% 22 190891 2212 36%
c t 70.01 1376 39 9 293 18843 5037 51% 22 190887 2212 36%
c e 70.93 1379 39 9 293 18843 4392 51% 22 188142 817 13%
c s 71.02 1379 39 9 293 18843 4392 51% 22 188090 817 13%
c W 74.56 1342 36 9 332 21009 5944 78% 21 188090 817 13%
c - 75.18 1342 36 10 349 21100 4296 78% 21 188090 817 13%
c - 86.67 1342 37 11 725 25307 5471 76% 22 188090 817 13%
c F 91.11 1342 36 11 820 28010 7378 77% 22 188090 817 13%
c - 95.60 1342 34 12 866 29894 6162 77% 22 188090 817 13%
c p 97.40 1342 34 12 866 30004 8637 77% 22 188090 817 13%
c } 100.95 1342 34 12 866 31005 9345 77% 21 188090 817 13%
c [ 100.95 1342 35 12 866 31005 9345 139% 30 188090 817 13%
c - 110.39 1342 33 13 868 34867 7248 120% 28 188090 817 13%
c B 112.11 1342 33 13 869 36012 8062 116% 27 188090 817 13%
c ] 113.73 1342 33 13 871 39623 10789 108% 28 188090 817 13%
c 1 113.73 1342 33 13 871 39623 10789 108% 28 188090 817 13%
c 
c --- [ writing output ] -----------------------------------------------------
c 
c writing simplified CNF to DIMACS file 'simp/33.cubes6304.adj.simp1'
c * 113.73 1342 33 13 871 39623 10789 108% 28 188090 817 13%
c opening file to write 'simp/33.cubes6304.adj.simp1'
c writing 'p cnf 6160 188090' header
c closing file 'simp/33.cubes6304.adj.simp1'
c after writing 90640441 bytes 86.4 MB
c wrote 188090 clauses in 0.68 seconds process time
c 
c --- [ writing extension ] --------------------------------------------------
c 
c writing extension stack to 'simp/33.cubes6304.adj.ext1'
c opening file to write 'simp/33.cubes6304.adj.ext1'
c closing file 'simp/33.cubes6304.adj.ext1'
c after writing 90518 bytes 0.1 MB
c wrote 4017 witnesses in 0.00 seconds process time
c 
c --- [ result ] -------------------------------------------------------------
c 
s SATISFIABLE
c 
c --- [ run-time profiling ] -------------------------------------------------
c 
c process time taken by individual solving procedures
c (percentage relative to process time for solving)
c 
c        82.10   87.79% search
c        54.05   57.80% unstable
c        26.20   28.02% stable
c        20.21   21.61% parse
c        11.42   12.21% simplify
c         5.92    6.33% probe
c         2.92    3.12% vivify
c         1.66    1.78% elim
c         1.59    1.70% lucky
c         0.25    0.27% walk
c         0.17    0.18% subsume
c         0.11    0.12% ternary
c   =================================
c        93.52   81.74% solve
c 
c last line shows process time for solving
c (percentage relative to total process time)
c 
c --- [ statistics ] ---------------------------------------------------------
c 
c chronological:              8091        20.42 %  of conflicts
c conflicts:                 39623       423.69    per second
c decisions:                111094      1187.92    per second
c eliminated:                 1395        22.65 %  of all variables
c fixed:                       799        12.97 %  of all variables
c learned:                   38749        97.79 %  per conflict
c learned_lits:            7436652       100.00 %  learned literals
c minimized:                     0         0.00 %  learned literals
c shrunken:                4466516        60.06 %  learned literals
c minishrunken:             633120         8.51 %  learned literals
c propagations:            4030678         0.04 M  per second
c reduced:                   17339        43.76 %  per conflict
c rephased:                      8      4952.88    interval
c restarts:                    871        45.49    interval
c stabilizing:                   3        47.00 %  of conflicts
c substituted:                   5         0.08 %  of all variables
c subsumed:                  11735         0.36 %  of all clauses
c strengthened:               2831         0.09 %  of all clauses
c ternary:                    2558         0.68 %  of resolved
c vivified:                     16         0.00 %  of all clauses
c walked:                        1     39623.00    interval
c weakened:                   3218         3.02    average size
c 
c seconds are measured in process time for solving
c 
c --- [ resources ] ----------------------------------------------------------
c 
c total process time since initialization:       114.41    seconds
c total real time since initialization:          114.76    seconds
c maximum resident set size of process:         1535.03    MB
c 
c --- [ shutting down ] ------------------------------------------------------
c 
c exit 10
WARNING! DIMACS header mismatch: wrong number of variables.
============================[ Problem Statistics ]=============================
|                                                                             |
|  Number of variables:          6120                                         |
|  Number of clauses:          188092                                         |
|  Parse time:                   1.23 s                                       |
|  Simplification time:          0.02 s                                       |
|                                                                             |
============================[ Search Statistics ]====================================================
| Conflicts |          ORIGINAL         |          LEARNT          | Num Sols |      SUBGRAPHS      |
|           |    Vars  Clauses Literals |    Limit  Clauses Lit/Cl |          | Canonical Noncanon. |
=====================================================================================================
|       143 |    6028   188135 19553881 |     2000      143     82 |        0 |        24        43 |
|       303 |    6028   188145 19554130 |     2000      303     90 |        0 |        51        53 |
|       532 |    6028   188149 19554361 |     2000      532    106 |        0 |        54        57 |
|      1524 |    6028   188804 19564226 |     2000     1524     63 |        0 |       162       712 |
|      3540 |    6028   190314 19584510 |     3600     2540     13 |        0 |       610      2222 |
|     10102 |    6028   196117 19663521 |     6303     4805     11 |        0 |      2383      8025 |
|     13523 |    6028   198399 19696712 |     7556     5079     30 |        0 |      3028     10307 |
|     16366 |    6028   199534 19716574 |     8778     4144     10 |        0 |      3240     11442 |
|     19759 |    6028   200365 19730137 |     8778     7537     48 |        0 |      3630     12273 |
|     31219 |    6028   207981 19826828 |    11198     9617     33 |        0 |      5237     19889 |
|     37690 |    6028   208686 19838897 |    12401    10491     58 |        0 |      5412     20594 |
|     47354 |    6028   209701 19854714 |    14805     7159     13 |        0 |      5666     21609 |
|     63222 |    6028   212595 19896613 |    16004    15626     57 |        0 |      6452     24503 |
|     84783 |    6028   214695 19932018 |    19615    11398     33 |        0 |      7168     26603 |
|    120583 |    6028   221303 20031864 |    23208    15991     33 |        0 |      8949     33211 |
|    168431 |    6028   225362 20082955 |    28010    13841     18 |        0 |      9983     37270 |
|    236709 |    6016   227956 20114501 |    32812    22521     47 |        0 |     10781     39864 |
=====================================================================================================
Number of solutions   : 6
Canonical subgraphs   : 12778          (32 /sec)
          order  3    : 1              (125000 /sec)
          order  4    : 1              (500000 /sec)
          order  5    : 1              (200000 /sec)
          order  6    : 1              (55556 /sec)
          order  7    : 1              (8772 /sec)
          order  8    : 2              (1357 /sec)
          order  9    : 7              (369 /sec)
          order 10    : 30             (108 /sec)
          order 11    : 147            (38 /sec)
          order 12    : 860            (42 /sec)
          order 13    : 1454           (75 /sec)
          order 14    : 3169           (52 /sec)
          order 15    : 4611           (34 /sec)
          order 16    : 1210           (21 /sec)
          order 17    : 447            (17 /sec)
          order 18    : 611            (12 /sec)
          order 19    : 173            (11 /sec)
          order 20    : 29             (11 /sec)
          order 21    : 17             (11 /sec)
          order 22    : 6              (1 /sec)
Noncanonical subgraphs: 45596          (357 /sec)
          order  3    : 0              (-nan /sec)
          order  4    : 0              (-nan /sec)
          order  5    : 0              (-nan /sec)
          order  6    : 0              (-nan /sec)
          order  7    : 0              (-nan /sec)
          order  8    : 0              (-nan /sec)
          order  9    : 0              (-nan /sec)
          order 10    : 0              (-nan /sec)
          order 11    : 0              (-nan /sec)
          order 12    : 0              (-nan /sec)
          order 13    : 15499          (2069 /sec)
          order 14    : 7435           (2825 /sec)
          order 15    : 7699           (908 /sec)
          order 16    : 12375          (172 /sec)
          order 17    : 935            (105 /sec)
          order 18    : 1458           (66 /sec)
          order 19    : 184            (48 /sec)
          order 20    : 0              (-nan /sec)
          order 21    : 0              (-nan /sec)
Canonicity checking   : 400.376 s
Noncanonicity checking: 127.703 s
Total canonicity time : 528.079 s
database reductions   : 28
restarts              : 732
conflicts             : 301497         (479 /sec)
decisions             : 452792         (0.00 % random) (720 /sec)
propagations          : 12703746       (20199 /sec)
conflict literals     : 31384486       (52.55 % deleted)
actual reward         : 0.277243
Memory used           : 283.00 MB
CPU time              : 628.936 s

UNSATISFIABLE
